NAME : st68_BL
TYPE : TSP
DIMENSION : 14
EDGE_WEIGHT_TYPE : EUC_2D
NODE_COORD_SECTION
9 30 23
17 40 35
21 28 43
25 6 8
27 30 9
39 8 19
40 20 18
43 44 33
44 52 18
45 12 13
46 25 5
61 17 22
62 5 45
68 48 19
EOF
